<?xml version = "1.0" encoding="UTF-8" standalone="yes"?>
<CPLEXSolution version="1.2">
 <header
   problemName="0_gamma__E_6_2_2"
   objectiveValue="0"
   solutionTypeValue="1"
   solutionTypeString="basic"
   solutionStatusValue="3"
   solutionStatusString="infeasible"
   solutionMethodString="dual"
   primalFeasible="0"
   dualFeasible="1"
   simplexIterations="5"
   writeLevel="1"/>
 <quality
   epRHS="9.9999999999999995e-07"
   epOpt="9.9999999999999995e-07"
   maxPrimalInfeas="2"
   maxDualInfeas="0"
   maxPrimalResidual="0"
   maxDualResidual="5.5511151231257827e-17"
   maxX="1"
   maxPi="0.33333333333333331"
   maxSlack="2"
   maxRedCost="0"
   kappa="42.045252883762195"/>
 <linearConstraints>
  <constraint name="R_def" index="0" status="BS" slack="0" dual="-0"/>
  <constraint name="val_cible_G" index="1" status="BS" slack="2" dual="0"/>
  <constraint name="BkI_3_0" index="2" status="BS" slack="0" dual="-0"/>
  <constraint name="BkI_3_1" index="3" status="BS" slack="0" dual="-0"/>
  <constraint name="BkI_3_2" index="4" status="BS" slack="0" dual="-0"/>
  <constraint name="BkI_3_3" index="5" status="BS" slack="0" dual="-0"/>
  <constraint name="BkI_3_4" index="6" status="BS" slack="0" dual="-0"/>
  <constraint name="BkI_3_5" index="7" status="BS" slack="0" dual="-0"/>
  <constraint name="BkI_5_0" index="8" status="BS" slack="0" dual="-0"/>
  <constraint name="BkI_5_1" index="9" status="BS" slack="0" dual="-0"/>
  <constraint name="BkI_5_2" index="10" status="LL" slack="0" dual="-0"/>
  <constraint name="BkI_5_3" index="11" status="BS" slack="0" dual="-0"/>
  <constraint name="BkI_5_4" index="12" status="LL" slack="0" dual="0"/>
  <constraint name="BkI_5_5" index="13" status="BS" slack="0" dual="-0"/>
  <constraint name="BkI_6_0" index="14" status="BS" slack="0" dual="-0"/>
  <constraint name="BkI_6_1" index="15" status="BS" slack="0" dual="-0"/>
  <constraint name="BkI_6_2" index="16" status="BS" slack="0" dual="-0"/>
  <constraint name="BkI_6_3" index="17" status="BS" slack="0" dual="-0"/>
  <constraint name="BkI_6_4" index="18" status="BS" slack="0" dual="-0"/>
  <constraint name="BkI_6_5" index="19" status="BS" slack="0" dual="-0"/>
  <constraint name="BkI_9_0" index="20" status="BS" slack="0" dual="-0"/>
  <constraint name="BkI_9_1" index="21" status="BS" slack="0" dual="-0"/>
  <constraint name="BkI_9_2" index="22" status="BS" slack="0" dual="-0"/>
  <constraint name="BkI_9_3" index="23" status="BS" slack="0" dual="-0"/>
  <constraint name="BkI_9_4" index="24" status="BS" slack="0" dual="-0"/>
  <constraint name="BkI_9_5" index="25" status="BS" slack="0" dual="-0"/>
  <constraint name="BkI_10_0" index="26" status="BS" slack="0" dual="-0"/>
  <constraint name="BkI_10_1" index="27" status="BS" slack="0" dual="-0"/>
  <constraint name="BkI_10_2" index="28" status="LL" slack="0" dual="-0.33333333333333331"/>
  <constraint name="BkI_10_3" index="29" status="BS" slack="0" dual="-0"/>
  <constraint name="BkI_10_4" index="30" status="LL" slack="0" dual="0.33333333333333331"/>
  <constraint name="BkI_10_5" index="31" status="BS" slack="0" dual="-0"/>
  <constraint name="BkI_12_0" index="32" status="BS" slack="0" dual="-0"/>
  <constraint name="BkI_12_1" index="33" status="BS" slack="0" dual="-0"/>
  <constraint name="BkI_12_2" index="34" status="BS" slack="0" dual="-0"/>
  <constraint name="BkI_12_3" index="35" status="BS" slack="0" dual="-0"/>
  <constraint name="BkI_12_4" index="36" status="BS" slack="0" dual="-0"/>
  <constraint name="BkI_12_5" index="37" status="BS" slack="0" dual="-0"/>
  <constraint name="BkI_17_0" index="38" status="BS" slack="0" dual="-0"/>
  <constraint name="BkI_17_1" index="39" status="BS" slack="0" dual="-0"/>
  <constraint name="BkI_17_2" index="40" status="LL" slack="0" dual="-0"/>
  <constraint name="BkI_17_3" index="41" status="BS" slack="0" dual="-0"/>
  <constraint name="BkI_17_4" index="42" status="BS" slack="0" dual="-0"/>
  <constraint name="BkI_17_5" index="43" status="BS" slack="0" dual="-0"/>
  <constraint name="BkI_18_0" index="44" status="BS" slack="0" dual="-0"/>
  <constraint name="BkI_18_1" index="45" status="BS" slack="0" dual="-0"/>
  <constraint name="BkI_18_2" index="46" status="BS" slack="0" dual="-0"/>
  <constraint name="BkI_18_3" index="47" status="BS" slack="0" dual="-0"/>
  <constraint name="BkI_18_4" index="48" status="BS" slack="0" dual="-0"/>
  <constraint name="BkI_18_5" index="49" status="BS" slack="0" dual="-0"/>
  <constraint name="BkI_20_0" index="50" status="BS" slack="0" dual="-0"/>
  <constraint name="BkI_20_1" index="51" status="BS" slack="0" dual="-0"/>
  <constraint name="BkI_20_2" index="52" status="LL" slack="0" dual="0"/>
  <constraint name="BkI_20_3" index="53" status="BS" slack="0" dual="-0"/>
  <constraint name="BkI_20_4" index="54" status="LL" slack="0" dual="-0"/>
  <constraint name="BkI_20_5" index="55" status="BS" slack="0" dual="-0"/>
  <constraint name="BkI_24_0" index="56" status="BS" slack="0" dual="-0"/>
  <constraint name="BkI_24_1" index="57" status="BS" slack="0" dual="-0"/>
  <constraint name="BkI_24_2" index="58" status="BS" slack="0" dual="-0"/>
  <constraint name="BkI_24_3" index="59" status="BS" slack="0" dual="-0"/>
  <constraint name="BkI_24_4" index="60" status="BS" slack="0" dual="-0"/>
  <constraint name="BkI_24_5" index="61" status="BS" slack="0" dual="-0"/>
  <constraint name="BkI_33_0" index="62" status="BS" slack="0" dual="-0"/>
  <constraint name="BkI_33_1" index="63" status="BS" slack="0" dual="-0"/>
  <constraint name="BkI_33_2" index="64" status="BS" slack="0" dual="-0"/>
  <constraint name="BkI_33_3" index="65" status="BS" slack="0" dual="-0"/>
  <constraint name="BkI_33_4" index="66" status="BS" slack="0" dual="-0"/>
  <constraint name="BkI_33_5" index="67" status="BS" slack="0" dual="-0"/>
  <constraint name="BkI_34_0" index="68" status="BS" slack="0" dual="-0"/>
  <constraint name="BkI_34_1" index="69" status="BS" slack="0" dual="-0"/>
  <constraint name="BkI_34_2" index="70" status="LL" slack="0" dual="0.33333333333333331"/>
  <constraint name="BkI_34_3" index="71" status="BS" slack="0" dual="-0"/>
  <constraint name="BkI_34_4" index="72" status="LL" slack="0" dual="-0.33333333333333331"/>
  <constraint name="BkI_34_5" index="73" status="BS" slack="0" dual="-0"/>
  <constraint name="BkI_36_0" index="74" status="BS" slack="0" dual="-0"/>
  <constraint name="BkI_36_1" index="75" status="BS" slack="0" dual="-0"/>
  <constraint name="BkI_36_2" index="76" status="BS" slack="0" dual="-0"/>
  <constraint name="BkI_36_3" index="77" status="BS" slack="0" dual="-0"/>
  <constraint name="BkI_36_4" index="78" status="BS" slack="0" dual="-0"/>
  <constraint name="BkI_36_5" index="79" status="BS" slack="0" dual="-0"/>
  <constraint name="BkI_40_0" index="80" status="BS" slack="0" dual="-0"/>
  <constraint name="BkI_40_1" index="81" status="BS" slack="0" dual="-0"/>
  <constraint name="BkI_40_2" index="82" status="LL" slack="0" dual="-0.33333333333333331"/>
  <constraint name="BkI_40_3" index="83" status="BS" slack="0" dual="-0"/>
  <constraint name="BkI_40_4" index="84" status="LL" slack="0" dual="0.33333333333333331"/>
  <constraint name="BkI_40_5" index="85" status="BS" slack="0" dual="-0"/>
  <constraint name="BkI_48_0" index="86" status="BS" slack="0" dual="-0"/>
  <constraint name="BkI_48_1" index="87" status="BS" slack="0" dual="-0"/>
  <constraint name="BkI_48_2" index="88" status="BS" slack="0" dual="-0"/>
  <constraint name="BkI_48_3" index="89" status="BS" slack="0" dual="-0"/>
  <constraint name="BkI_48_4" index="90" status="BS" slack="0" dual="-0"/>
  <constraint name="BkI_48_5" index="91" status="BS" slack="0" dual="-0"/>
 </linearConstraints>
 <variables>
  <variable name="R" index="0" status="LL" value="1" reducedCost="-0"/>
  <variable name="Q012345" index="1" status="BS" value="0" reducedCost="0"/>
  <variable name="Q000000" index="2" status="UL" value="1" reducedCost="0"/>
  <variable name="P000000" index="3" status="UL" value="1" reducedCost="0"/>
  <variable name="Q000001" index="4" status="LL" value="0" reducedCost="0"/>
  <variable name="P000001" index="5" status="LL" value="0" reducedCost="0"/>
  <variable name="Q000002" index="6" status="LL" value="0" reducedCost="0"/>
  <variable name="P000002" index="7" status="LL" value="0" reducedCost="0"/>
  <variable name="Q000003" index="8" status="LL" value="0" reducedCost="0"/>
  <variable name="P000003" index="9" status="LL" value="0" reducedCost="0"/>
  <variable name="Q000004" index="10" status="LL" value="0" reducedCost="0"/>
  <variable name="P000004" index="11" status="LL" value="0" reducedCost="0"/>
  <variable name="Q000005" index="12" status="LL" value="0" reducedCost="0"/>
  <variable name="P000005" index="13" status="LL" value="0" reducedCost="0"/>
  <variable name="Q000010" index="14" status="LL" value="0" reducedCost="0"/>
  <variable name="P000010" index="15" status="LL" value="0" reducedCost="0"/>
  <variable name="Q000011" index="16" status="LL" value="0" reducedCost="0"/>
  <variable name="P000011" index="17" status="LL" value="0" reducedCost="0"/>
  <variable name="Q000020" index="18" status="LL" value="0" reducedCost="-0"/>
  <variable name="P000020" index="19" status="BS" value="0" reducedCost="0"/>
  <variable name="Q000022" index="20" status="LL" value="0" reducedCost="-0"/>
  <variable name="P000022" index="21" status="LL" value="0" reducedCost="-0"/>
  <variable name="Q000030" index="22" status="LL" value="0" reducedCost="0"/>
  <variable name="P000030" index="23" status="LL" value="0" reducedCost="0"/>
  <variable name="Q000033" index="24" status="LL" value="0" reducedCost="0"/>
  <variable name="P000033" index="25" status="LL" value="0" reducedCost="0"/>
  <variable name="Q000040" index="26" status="LL" value="0" reducedCost="-0"/>
  <variable name="P000040" index="27" status="LL" value="0" reducedCost="-0"/>
  <variable name="Q000044" index="28" status="LL" value="0" reducedCost="-0"/>
  <variable name="P000044" index="29" status="LL" value="0" reducedCost="-0"/>
  <variable name="Q000050" index="30" status="LL" value="0" reducedCost="0"/>
  <variable name="P000050" index="31" status="LL" value="0" reducedCost="0"/>
  <variable name="Q000055" index="32" status="LL" value="0" reducedCost="0"/>
  <variable name="P000055" index="33" status="LL" value="0" reducedCost="0"/>
  <variable name="Q000100" index="34" status="LL" value="0" reducedCost="0"/>
  <variable name="P000100" index="35" status="LL" value="0" reducedCost="0"/>
  <variable name="Q000101" index="36" status="LL" value="0" reducedCost="0"/>
  <variable name="P000101" index="37" status="LL" value="0" reducedCost="0"/>
  <variable name="Q000110" index="38" status="LL" value="0" reducedCost="0"/>
  <variable name="P000110" index="39" status="LL" value="0" reducedCost="0"/>
  <variable name="Q000111" index="40" status="LL" value="0" reducedCost="0"/>
  <variable name="P000111" index="41" status="LL" value="0" reducedCost="0"/>
  <variable name="Q000200" index="42" status="LL" value="0" reducedCost="0"/>
  <variable name="P000200" index="43" status="LL" value="0" reducedCost="0"/>
  <variable name="Q000202" index="44" status="LL" value="0" reducedCost="0"/>
  <variable name="P000202" index="45" status="LL" value="0" reducedCost="0"/>
  <variable name="Q000220" index="46" status="LL" value="0" reducedCost="-0"/>
  <variable name="P000220" index="47" status="LL" value="0" reducedCost="-0"/>
  <variable name="Q000222" index="48" status="LL" value="0" reducedCost="-0"/>
  <variable name="P000222" index="49" status="LL" value="0" reducedCost="-0"/>
  <variable name="Q000300" index="50" status="LL" value="0" reducedCost="0"/>
  <variable name="P000300" index="51" status="LL" value="0" reducedCost="0"/>
  <variable name="Q000303" index="52" status="LL" value="0" reducedCost="0"/>
  <variable name="P000303" index="53" status="LL" value="0" reducedCost="0"/>
  <variable name="Q000330" index="54" status="LL" value="0" reducedCost="0"/>
  <variable name="P000330" index="55" status="LL" value="0" reducedCost="0"/>
  <variable name="Q000333" index="56" status="LL" value="0" reducedCost="0"/>
  <variable name="P000333" index="57" status="LL" value="0" reducedCost="0"/>
  <variable name="Q000400" index="58" status="LL" value="0" reducedCost="0"/>
  <variable name="P000400" index="59" status="LL" value="0" reducedCost="0"/>
  <variable name="Q000404" index="60" status="LL" value="0" reducedCost="0"/>
  <variable name="P000404" index="61" status="LL" value="0" reducedCost="0"/>
  <variable name="Q000440" index="62" status="LL" value="0" reducedCost="-0"/>
  <variable name="P000440" index="63" status="LL" value="0" reducedCost="-0"/>
  <variable name="Q000444" index="64" status="LL" value="0" reducedCost="-0"/>
  <variable name="P000444" index="65" status="LL" value="0" reducedCost="-0"/>
  <variable name="Q000500" index="66" status="LL" value="0" reducedCost="0"/>
  <variable name="P000500" index="67" status="LL" value="0" reducedCost="0"/>
  <variable name="Q000505" index="68" status="LL" value="0" reducedCost="0"/>
  <variable name="P000505" index="69" status="LL" value="0" reducedCost="0"/>
  <variable name="Q000550" index="70" status="LL" value="0" reducedCost="0"/>
  <variable name="P000550" index="71" status="LL" value="0" reducedCost="0"/>
  <variable name="Q000555" index="72" status="LL" value="0" reducedCost="0"/>
  <variable name="P000555" index="73" status="LL" value="0" reducedCost="0"/>
  <variable name="Q001000" index="74" status="LL" value="0" reducedCost="0"/>
  <variable name="P001000" index="75" status="LL" value="0" reducedCost="0"/>
  <variable name="Q001001" index="76" status="LL" value="0" reducedCost="0"/>
  <variable name="P001001" index="77" status="LL" value="0" reducedCost="0"/>
  <variable name="Q001010" index="78" status="LL" value="0" reducedCost="0"/>
  <variable name="P001010" index="79" status="LL" value="0" reducedCost="0"/>
  <variable name="Q001011" index="80" status="LL" value="0" reducedCost="0"/>
  <variable name="P001011" index="81" status="LL" value="0" reducedCost="0"/>
  <variable name="Q001100" index="82" status="LL" value="0" reducedCost="0"/>
  <variable name="P001100" index="83" status="LL" value="0" reducedCost="0"/>
  <variable name="Q001101" index="84" status="LL" value="0" reducedCost="0"/>
  <variable name="P001101" index="85" status="LL" value="0" reducedCost="0"/>
  <variable name="Q001110" index="86" status="LL" value="0" reducedCost="0"/>
  <variable name="P001110" index="87" status="LL" value="0" reducedCost="0"/>
  <variable name="Q001111" index="88" status="LL" value="0" reducedCost="0"/>
  <variable name="P001111" index="89" status="LL" value="0" reducedCost="0"/>
  <variable name="Q002000" index="90" status="LL" value="0" reducedCost="-0"/>
  <variable name="P002000" index="91" status="BS" value="0" reducedCost="0"/>
  <variable name="Q002002" index="92" status="LL" value="0" reducedCost="-0"/>
  <variable name="P002002" index="93" status="LL" value="0" reducedCost="-0"/>
  <variable name="Q002020" index="94" status="LL" value="0" reducedCost="-0"/>
  <variable name="P002020" index="95" status="LL" value="0" reducedCost="-0"/>
  <variable name="Q002022" index="96" status="LL" value="0" reducedCost="-0"/>
  <variable name="P002022" index="97" status="LL" value="0" reducedCost="-0"/>
  <variable name="Q002200" index="98" status="LL" value="0" reducedCost="-0"/>
  <variable name="P002200" index="99" status="LL" value="0" reducedCost="-0"/>
  <variable name="Q002202" index="100" status="LL" value="0" reducedCost="-0"/>
  <variable name="P002202" index="101" status="LL" value="0" reducedCost="-0"/>
  <variable name="Q002220" index="102" status="LL" value="0" reducedCost="-0"/>
  <variable name="P002220" index="103" status="LL" value="0" reducedCost="-0"/>
  <variable name="Q002222" index="104" status="LL" value="0" reducedCost="-0"/>
  <variable name="P002222" index="105" status="LL" value="0" reducedCost="-0"/>
  <variable name="Q003000" index="106" status="LL" value="0" reducedCost="0"/>
  <variable name="P003000" index="107" status="LL" value="0" reducedCost="0"/>
  <variable name="Q003003" index="108" status="LL" value="0" reducedCost="0"/>
  <variable name="P003003" index="109" status="LL" value="0" reducedCost="0"/>
  <variable name="Q003030" index="110" status="LL" value="0" reducedCost="0"/>
  <variable name="P003030" index="111" status="LL" value="0" reducedCost="0"/>
  <variable name="Q003033" index="112" status="LL" value="0" reducedCost="0"/>
  <variable name="P003033" index="113" status="LL" value="0" reducedCost="0"/>
  <variable name="Q003300" index="114" status="LL" value="0" reducedCost="0"/>
  <variable name="P003300" index="115" status="LL" value="0" reducedCost="0"/>
  <variable name="Q003303" index="116" status="LL" value="0" reducedCost="0"/>
  <variable name="P003303" index="117" status="LL" value="0" reducedCost="0"/>
  <variable name="Q003330" index="118" status="LL" value="0" reducedCost="0"/>
  <variable name="P003330" index="119" status="LL" value="0" reducedCost="0"/>
  <variable name="Q003333" index="120" status="LL" value="0" reducedCost="0"/>
  <variable name="P003333" index="121" status="LL" value="0" reducedCost="0"/>
  <variable name="Q004000" index="122" status="LL" value="0" reducedCost="-0"/>
  <variable name="P004000" index="123" status="LL" value="0" reducedCost="-0"/>
  <variable name="Q004004" index="124" status="BS" value="0" reducedCost="0"/>
  <variable name="P004004" index="125" status="LL" value="0" reducedCost="-0"/>
  <variable name="Q004040" index="126" status="LL" value="0" reducedCost="-0"/>
  <variable name="P004040" index="127" status="LL" value="0" reducedCost="-0"/>
  <variable name="Q004044" index="128" status="LL" value="0" reducedCost="-0"/>
  <variable name="P004044" index="129" status="LL" value="0" reducedCost="-0"/>
  <variable name="Q004400" index="130" status="LL" value="0" reducedCost="-0"/>
  <variable name="P004400" index="131" status="LL" value="0" reducedCost="-0"/>
  <variable name="Q004404" index="132" status="LL" value="0" reducedCost="-0"/>
  <variable name="P004404" index="133" status="LL" value="0" reducedCost="-0"/>
  <variable name="Q004440" index="134" status="LL" value="0" reducedCost="-0"/>
  <variable name="P004440" index="135" status="LL" value="0" reducedCost="-0"/>
  <variable name="Q004444" index="136" status="LL" value="0" reducedCost="-0"/>
  <variable name="P004444" index="137" status="LL" value="0" reducedCost="-0"/>
  <variable name="Q005000" index="138" status="LL" value="0" reducedCost="0"/>
  <variable name="P005000" index="139" status="LL" value="0" reducedCost="0"/>
  <variable name="Q005005" index="140" status="LL" value="0" reducedCost="0"/>
  <variable name="P005005" index="141" status="LL" value="0" reducedCost="0"/>
  <variable name="Q005050" index="142" status="LL" value="0" reducedCost="0"/>
  <variable name="P005050" index="143" status="LL" value="0" reducedCost="0"/>
  <variable name="Q005055" index="144" status="LL" value="0" reducedCost="0"/>
  <variable name="P005055" index="145" status="LL" value="0" reducedCost="0"/>
  <variable name="Q005500" index="146" status="LL" value="0" reducedCost="0"/>
  <variable name="P005500" index="147" status="LL" value="0" reducedCost="0"/>
  <variable name="Q005505" index="148" status="LL" value="0" reducedCost="0"/>
  <variable name="P005505" index="149" status="LL" value="0" reducedCost="0"/>
  <variable name="Q005550" index="150" status="LL" value="0" reducedCost="0"/>
  <variable name="P005550" index="151" status="LL" value="0" reducedCost="0"/>
  <variable name="Q005555" index="152" status="LL" value="0" reducedCost="0"/>
  <variable name="P005555" index="153" status="LL" value="0" reducedCost="0"/>
  <variable name="Q010000" index="154" status="LL" value="0" reducedCost="0"/>
  <variable name="P010000" index="155" status="LL" value="0" reducedCost="0"/>
  <variable name="Q010001" index="156" status="LL" value="0" reducedCost="0"/>
  <variable name="P010001" index="157" status="LL" value="0" reducedCost="0"/>
  <variable name="Q010010" index="158" status="LL" value="0" reducedCost="0"/>
  <variable name="P010010" index="159" status="LL" value="0" reducedCost="0"/>
  <variable name="Q010011" index="160" status="LL" value="0" reducedCost="0"/>
  <variable name="P010011" index="161" status="LL" value="0" reducedCost="0"/>
  <variable name="Q010100" index="162" status="LL" value="0" reducedCost="0"/>
  <variable name="P010100" index="163" status="LL" value="0" reducedCost="0"/>
  <variable name="Q010101" index="164" status="LL" value="0" reducedCost="0"/>
  <variable name="P010101" index="165" status="LL" value="0" reducedCost="0"/>
  <variable name="Q010110" index="166" status="LL" value="0" reducedCost="0"/>
  <variable name="P010110" index="167" status="LL" value="0" reducedCost="0"/>
  <variable name="Q010111" index="168" status="LL" value="0" reducedCost="0"/>
  <variable name="P010111" index="169" status="LL" value="0" reducedCost="0"/>
  <variable name="Q011000" index="170" status="LL" value="0" reducedCost="0"/>
  <variable name="P011000" index="171" status="LL" value="0" reducedCost="0"/>
  <variable name="Q011001" index="172" status="LL" value="0" reducedCost="0"/>
  <variable name="P011001" index="173" status="LL" value="0" reducedCost="0"/>
  <variable name="Q011010" index="174" status="LL" value="0" reducedCost="0"/>
  <variable name="P011010" index="175" status="LL" value="0" reducedCost="0"/>
  <variable name="Q011011" index="176" status="LL" value="0" reducedCost="0"/>
  <variable name="P011011" index="177" status="LL" value="0" reducedCost="0"/>
  <variable name="Q011100" index="178" status="LL" value="0" reducedCost="0"/>
  <variable name="P011100" index="179" status="LL" value="0" reducedCost="0"/>
  <variable name="Q011101" index="180" status="LL" value="0" reducedCost="0"/>
  <variable name="P011101" index="181" status="LL" value="0" reducedCost="0"/>
  <variable name="Q011110" index="182" status="LL" value="0" reducedCost="0"/>
  <variable name="P011110" index="183" status="LL" value="0" reducedCost="0"/>
  <variable name="Q011111" index="184" status="LL" value="0" reducedCost="0"/>
  <variable name="P011111" index="185" status="LL" value="0" reducedCost="0"/>
  <variable name="Q020000" index="186" status="LL" value="0" reducedCost="0"/>
  <variable name="P020000" index="187" status="LL" value="0" reducedCost="0"/>
  <variable name="Q020002" index="188" status="LL" value="0" reducedCost="0"/>
  <variable name="P020002" index="189" status="LL" value="0" reducedCost="0"/>
  <variable name="Q020020" index="190" status="LL" value="0" reducedCost="-0"/>
  <variable name="P020020" index="191" status="LL" value="0" reducedCost="-0"/>
  <variable name="Q020022" index="192" status="LL" value="0" reducedCost="-0"/>
  <variable name="P020022" index="193" status="LL" value="0" reducedCost="-0"/>
  <variable name="Q020200" index="194" status="LL" value="0" reducedCost="0"/>
  <variable name="P020200" index="195" status="LL" value="0" reducedCost="0"/>
  <variable name="Q020202" index="196" status="LL" value="0" reducedCost="0"/>
  <variable name="P020202" index="197" status="LL" value="0" reducedCost="0"/>
  <variable name="Q020220" index="198" status="LL" value="0" reducedCost="-0"/>
  <variable name="P020220" index="199" status="LL" value="0" reducedCost="-0"/>
  <variable name="Q020222" index="200" status="LL" value="0" reducedCost="-0"/>
  <variable name="P020222" index="201" status="LL" value="0" reducedCost="-0"/>
  <variable name="Q022000" index="202" status="LL" value="0" reducedCost="-0"/>
  <variable name="P022000" index="203" status="LL" value="0" reducedCost="-0"/>
  <variable name="Q022002" index="204" status="LL" value="0" reducedCost="-0"/>
  <variable name="P022002" index="205" status="LL" value="0" reducedCost="-0"/>
  <variable name="Q022020" index="206" status="LL" value="0" reducedCost="-0"/>
  <variable name="P022020" index="207" status="BS" value="0" reducedCost="0"/>
  <variable name="Q022022" index="208" status="BS" value="0" reducedCost="0"/>
  <variable name="P022022" index="209" status="LL" value="0" reducedCost="-0"/>
  <variable name="Q022200" index="210" status="BS" value="0" reducedCost="0"/>
  <variable name="P022200" index="211" status="LL" value="0" reducedCost="-0"/>
  <variable name="Q022202" index="212" status="LL" value="0" reducedCost="-0"/>
  <variable name="P022202" index="213" status="LL" value="0" reducedCost="-0"/>
  <variable name="Q022220" index="214" status="LL" value="0" reducedCost="-0"/>
  <variable name="P022220" index="215" status="LL" value="0" reducedCost="-0"/>
  <variable name="Q022222" index="216" status="BS" value="0" reducedCost="0"/>
  <variable name="P022222" index="217" status="LL" value="0" reducedCost="-0"/>
  <variable name="Q030000" index="218" status="LL" value="0" reducedCost="0"/>
  <variable name="P030000" index="219" status="LL" value="0" reducedCost="0"/>
  <variable name="Q030003" index="220" status="LL" value="0" reducedCost="0"/>
  <variable name="P030003" index="221" status="LL" value="0" reducedCost="0"/>
  <variable name="Q030030" index="222" status="LL" value="0" reducedCost="0"/>
  <variable name="P030030" index="223" status="LL" value="0" reducedCost="0"/>
  <variable name="Q030033" index="224" status="LL" value="0" reducedCost="0"/>
  <variable name="P030033" index="225" status="LL" value="0" reducedCost="0"/>
  <variable name="Q030300" index="226" status="LL" value="0" reducedCost="0"/>
  <variable name="P030300" index="227" status="LL" value="0" reducedCost="0"/>
  <variable name="Q030303" index="228" status="LL" value="0" reducedCost="0"/>
  <variable name="P030303" index="229" status="LL" value="0" reducedCost="0"/>
  <variable name="Q030330" index="230" status="LL" value="0" reducedCost="0"/>
  <variable name="P030330" index="231" status="LL" value="0" reducedCost="0"/>
  <variable name="Q030333" index="232" status="LL" value="0" reducedCost="0"/>
  <variable name="P030333" index="233" status="LL" value="0" reducedCost="0"/>
  <variable name="Q033000" index="234" status="LL" value="0" reducedCost="0"/>
  <variable name="P033000" index="235" status="LL" value="0" reducedCost="0"/>
  <variable name="Q033003" index="236" status="LL" value="0" reducedCost="0"/>
  <variable name="P033003" index="237" status="LL" value="0" reducedCost="0"/>
  <variable name="Q033030" index="238" status="LL" value="0" reducedCost="0"/>
  <variable name="P033030" index="239" status="LL" value="0" reducedCost="0"/>
  <variable name="Q033033" index="240" status="LL" value="0" reducedCost="0"/>
  <variable name="P033033" index="241" status="LL" value="0" reducedCost="0"/>
  <variable name="Q033300" index="242" status="LL" value="0" reducedCost="0"/>
  <variable name="P033300" index="243" status="LL" value="0" reducedCost="0"/>
  <variable name="Q033303" index="244" status="LL" value="0" reducedCost="0"/>
  <variable name="P033303" index="245" status="LL" value="0" reducedCost="0"/>
  <variable name="Q033330" index="246" status="LL" value="0" reducedCost="0"/>
  <variable name="P033330" index="247" status="LL" value="0" reducedCost="0"/>
  <variable name="Q033333" index="248" status="LL" value="0" reducedCost="0"/>
  <variable name="P033333" index="249" status="LL" value="0" reducedCost="0"/>
  <variable name="Q040000" index="250" status="LL" value="0" reducedCost="0"/>
  <variable name="P040000" index="251" status="LL" value="0" reducedCost="0"/>
  <variable name="Q040004" index="252" status="LL" value="0" reducedCost="0"/>
  <variable name="P040004" index="253" status="LL" value="0" reducedCost="0"/>
  <variable name="Q040040" index="254" status="LL" value="0" reducedCost="-0"/>
  <variable name="P040040" index="255" status="LL" value="0" reducedCost="-0"/>
  <variable name="Q040044" index="256" status="LL" value="0" reducedCost="-0"/>
  <variable name="P040044" index="257" status="LL" value="0" reducedCost="-0"/>
  <variable name="Q040400" index="258" status="LL" value="0" reducedCost="0"/>
  <variable name="P040400" index="259" status="LL" value="0" reducedCost="0"/>
  <variable name="Q040404" index="260" status="LL" value="0" reducedCost="0"/>
  <variable name="P040404" index="261" status="LL" value="0" reducedCost="0"/>
  <variable name="Q040440" index="262" status="LL" value="0" reducedCost="-0"/>
  <variable name="P040440" index="263" status="LL" value="0" reducedCost="-0"/>
  <variable name="Q040444" index="264" status="LL" value="0" reducedCost="-0"/>
  <variable name="P040444" index="265" status="LL" value="0" reducedCost="-0"/>
  <variable name="Q044000" index="266" status="LL" value="0" reducedCost="-0"/>
  <variable name="P044000" index="267" status="LL" value="0" reducedCost="-0"/>
  <variable name="Q044004" index="268" status="LL" value="0" reducedCost="-0"/>
  <variable name="P044004" index="269" status="LL" value="0" reducedCost="-0"/>
  <variable name="Q044040" index="270" status="BS" value="0" reducedCost="0"/>
  <variable name="P044040" index="271" status="LL" value="0" reducedCost="-0"/>
  <variable name="Q044044" index="272" status="BS" value="0" reducedCost="0"/>
  <variable name="P044044" index="273" status="LL" value="0" reducedCost="-0"/>
  <variable name="Q044400" index="274" status="LL" value="0" reducedCost="-0"/>
  <variable name="P044400" index="275" status="LL" value="0" reducedCost="-0"/>
  <variable name="Q044404" index="276" status="LL" value="0" reducedCost="-0"/>
  <variable name="P044404" index="277" status="LL" value="0" reducedCost="-0"/>
  <variable name="Q044440" index="278" status="LL" value="0" reducedCost="-0"/>
  <variable name="P044440" index="279" status="LL" value="0" reducedCost="-0"/>
  <variable name="Q044444" index="280" status="BS" value="0" reducedCost="0"/>
  <variable name="P044444" index="281" status="LL" value="0" reducedCost="-0"/>
  <variable name="Q050000" index="282" status="LL" value="0" reducedCost="0"/>
  <variable name="P050000" index="283" status="LL" value="0" reducedCost="0"/>
  <variable name="Q050005" index="284" status="LL" value="0" reducedCost="0"/>
  <variable name="P050005" index="285" status="LL" value="0" reducedCost="0"/>
  <variable name="Q050050" index="286" status="LL" value="0" reducedCost="0"/>
  <variable name="P050050" index="287" status="LL" value="0" reducedCost="0"/>
  <variable name="Q050055" index="288" status="LL" value="0" reducedCost="0"/>
  <variable name="P050055" index="289" status="LL" value="0" reducedCost="0"/>
  <variable name="Q050500" index="290" status="LL" value="0" reducedCost="0"/>
  <variable name="P050500" index="291" status="LL" value="0" reducedCost="0"/>
  <variable name="Q050505" index="292" status="LL" value="0" reducedCost="0"/>
  <variable name="P050505" index="293" status="LL" value="0" reducedCost="0"/>
  <variable name="Q050550" index="294" status="LL" value="0" reducedCost="0"/>
  <variable name="P050550" index="295" status="LL" value="0" reducedCost="0"/>
  <variable name="Q050555" index="296" status="LL" value="0" reducedCost="0"/>
  <variable name="P050555" index="297" status="LL" value="0" reducedCost="0"/>
  <variable name="Q055000" index="298" status="LL" value="0" reducedCost="0"/>
  <variable name="P055000" index="299" status="LL" value="0" reducedCost="0"/>
  <variable name="Q055005" index="300" status="LL" value="0" reducedCost="0"/>
  <variable name="P055005" index="301" status="LL" value="0" reducedCost="0"/>
  <variable name="Q055050" index="302" status="LL" value="0" reducedCost="0"/>
  <variable name="P055050" index="303" status="LL" value="0" reducedCost="0"/>
  <variable name="Q055055" index="304" status="LL" value="0" reducedCost="0"/>
  <variable name="P055055" index="305" status="LL" value="0" reducedCost="0"/>
  <variable name="Q055500" index="306" status="LL" value="0" reducedCost="0"/>
  <variable name="P055500" index="307" status="LL" value="0" reducedCost="0"/>
  <variable name="Q055505" index="308" status="LL" value="0" reducedCost="0"/>
  <variable name="P055505" index="309" status="LL" value="0" reducedCost="0"/>
  <variable name="Q055550" index="310" status="LL" value="0" reducedCost="0"/>
  <variable name="P055550" index="311" status="LL" value="0" reducedCost="0"/>
  <variable name="Q055555" index="312" status="LL" value="0" reducedCost="0"/>
  <variable name="P055555" index="313" status="LL" value="0" reducedCost="0"/>
 </variables>
 <objectiveValues>
  <objective index="0" name="" value="0"/>
 </objectiveValues>
</CPLEXSolution>
